# 93651
param k := 6;
param n := 60;
param s := 1;
set E :=  (0,2) (1,31) (1,33) (1,59) (2,28) (2,50) (3,24) (3,33) (4,35) (5,8) (5,17) (5,23) (6,7) (7,37) (7,49) (8,43) (9,16) (9,45) (10,16) (10,22) (11,45) (12,20) (13,43) (14,42) (15,33) (15,40) (16,19) (18,32) (19,34) (20,40) (21,32) (21,51) (22,50) (25,35) (25,54) (25,57) (26,42) (26,47) (26,48) (27,34) (27,35) (28,48) (28,51) (28,53) (28,59) (29,36) (29,58) (30,38) (30,46) (30,58) (33,52) (34,44) (37,40) (37,43) (38,45) (39,44) (41,50) (43,51) (44,53) (48,49) (50,55) (51,56) (52,55);